10J3M/DAT/10J3MNLA-20.dat
10 3
25.0334 626.6711
20.8887 436.3378
19.2342 369.9544
20.3021 412.1753
30.1446 908.6969
17.4652 305.0332
27.0131 729.7076
25.9633 674.0929
25.8718 669.35
22.6296 512.0988
1881.3727