10J3M/SOL/10J3MNLA-20.sol
solution status: optimal solution found
objective value:                     83.6234657021381
x#1#1                                               1 	(obj:0)
x#2#2                                               1 	(obj:0)
x#3#2                                               1 	(obj:0)
x#4#3                                               1 	(obj:0)
x#5#1                               0.940647688926639 	(obj:0)
x#5#2                              0.0593523110733611 	(obj:0)
x#6#2                               0.186796985300493 	(obj:0)
x#6#3                               0.813203014699507 	(obj:0)
x#7#1                               0.218771187506581 	(obj:0)
x#7#3                               0.781228812493418 	(obj:0)
x#8#2                                               1 	(obj:0)
x#9#1                               0.168342702245478 	(obj:0)
x#9#3                               0.831657214026152 	(obj:0)
x#10#1                                              1 	(obj:0)
z                                    83.6234657021381 	(obj:1)
